INCAR created by Atomic Simulation Environment
 ENCUT = 500.000000
 KSPACING = 0.200000
 SIGMA = 0.050000
 POTIM = 0.2
 EDIFF = 1.00e-06
 ALGO = normal
 GGA = PE
 PREC = Accurate
 IBRION = 2
 ISIF = 4
 ISMEAR = 1
 ISYM = 2
 ISPIN = 2
 LDAUTYPE = 4
 LMAXMIX = 8
 MAXMIX = 60
 NELMIN = 4
 NSW = 1
 NWRITE = 1
 NBLOCK = 1
 LDAUL = 3
 LDAUJ = 0.0
 LASPH = .TRUE.
 LCHARG = .FALSE.
 LDAU = .TRUE.
 LWAVE = .FALSE.
 LSORBIT = .TRUE.
 GGA_COMPAT = .FALSE.
 LORBMOM = .TRUE.
 LREAL = False
MAGMOM = 6*0
LDAUU = 1.8
KPAR = 8
NPAR = 4
